c 54_3_checker.cnf
c
c field = 54
c formula set type = 3_checker
c
p cnf 4 58
100 
102 
104 
-98 
101 
103 
105 
-99 
100 
102 
104 
-108 
101 
103 
105 
-109 
102 
104 
108 
-100 
103 
105 
109 
-101 
102 
104 
108 
-110 
103 
105 
109 
-111 
104 
108 
110 
-102 
105 
109 
111 
-103 
104 
108 
110 
-112 
105 
109 
111 
-113 
108 
110 
112 
-104 
109 
111 
113 
-105 
108 
110 
112 
-114 
109 
111 
113 
-115 
16 
46 
76 
-136 
17 
47 
77 
-137 
46 
76 
136 
-16 
47 
77 
137 
-17 
46 
76 
136 
-166 
47 
77 
137 
-167 
76 
136 
166 
-46 
77 
137 
167 
-47 
76 
136 
166 
-196 
77 
137 
167 
-197 
136 
166 
196 
-76 
137 
167 
197 
-77 
136 
166 
196 
-226 
137 
167 
197 
-227 
10 
42 
74 
-138 
11 
43 
75 
-139 
42 
74 
138 
-10 
43 
75 
139 
-11 
42 
74 
138 
-170 
43 
75 
139 
-171 
74 
138 
170 
-42 
75 
139 
171 
-43 
74 
138 
170 
-202 
75 
139 
171 
-203 
138 
170 
202 
-74 
139 
171 
203 
-75 
138 
170 
202 
-234 
139 
171 
203 
-235 
22 
50 
78 
-134 
23 
51 
79 
-135 
50 
78 
134 
-22 
51 
79 
135 
-23 
50 
78 
134 
-162 
51 
79 
135 
-163 
78 
134 
162 
-50 
79 
135 
163 
-51 
78 
134 
162 
-190 
79 
135 
163 
-191 
134 
162 
190 
-78 
135 
163 
191 
-79 
134 
162 
190 
-218 
135 
163 
191 
-219 
